SCIP Status        : problem creation / modification
Total Time         :       0.02
  reading          :       0.02
Original Problem   :
  Problem name     : main4.zpl
  Variables        : 1510 (1510 binary, 0 integer, 0 implicit integer, 0 continuous)
  Constraints      : 0 initial, 1660 maximal
  Objective        : minimize, 1510 non-zeros (abs.min = 0.00034, abs.max = 5700)
